sat
(model 
  (define-fun p41 () Int
    0)
  (define-fun p45 () Int
    0)
  (define-fun p24 () Int
    0)
  (define-fun p63 () Int
    0)
  (define-fun p46 () Int
    0)
  (define-fun p43 () Int
    1)
  (define-fun p33 () Int
    1)
  (define-fun p32 () Int
    1)
  (define-fun p56 () Int
    0)
  (define-fun p62 () Int
    0)
  (define-fun p35 () Int
    1)
  (define-fun p50 () Int
    1)
  (define-fun p53 () Int
    0)
  (define-fun p06 () Int
    0)
  (define-fun p13 () Int
    1)
  (define-fun p12 () Int
    1)
  (define-fun p60 () Int
    0)
  (define-fun p36 () Int
    1)
  (define-fun p54 () Int
    0)
  (define-fun p31 () Int
    1)
  (define-fun p51 () Int
    1)
  (define-fun p14 () Int
    0)
  (define-fun p25 () Int
    0)
  (define-fun p16 () Int
    0)
  (define-fun p05 () Int
    0)
  (define-fun p26 () Int
    0)
  (define-fun p55 () Int
    0)
  (define-fun p64 () Int
    1)
  (define-fun p66 () Int
    0)
  (define-fun p61 () Int
    0)
  (define-fun p52 () Int
    1)
  (define-fun p15 () Int
    0)
  (define-fun p23 () Int
    1)
  (define-fun p65 () Int
    0)
  (define-fun p00 () Int
    0)
  (define-fun p01 () Int
    0)
  (define-fun p02 () Int
    0)
  (define-fun p03 () Int
    0)
  (define-fun p10 () Int
    0)
  (define-fun p20 () Int
    0)
  (define-fun p30 () Int
    0)
  (define-fun p40 () Int
    0)
  (define-fun p11 () Int
    1)
  (define-fun p21 () Int
    1)
  (define-fun p22 () Int
    1)
  (define-fun p42 () Int
    1)
  (define-fun p34 () Int
    1)
  (define-fun p44 () Int
    1)
  (define-fun p04 () Int
    1)
)
